Academic license - for non-commercial use only
Set parameter TimeLimit to value 7200

Gurobi Optimizer version 8.0.0 build v8.0.0rc0 (linux64)
Copyright (c) 2018, Gurobi Optimization, LLC

Read LP format model from file flow/la07.lp
Reading time = 0.97 seconds
: 54909 rows, 100506 columns, 2676003 nonzeros
Optimize a model with 54909 rows, 100506 columns and 2676003 nonzeros
Variable types: 0 continuous, 100506 integer (100505 binary)
Coefficient statistics:
  Matrix range     [1e+00, 9e+02]
  Objective range  [1e+00, 1e+00]
  Bounds range     [1e+00, 1e+00]
  RHS range        [1e+00, 1e+00]
Presolve removed 9982 rows and 9804 columns (presolve time = 5s) ...
Presolve removed 10227 rows and 10062 columns
Presolve time: 8.51s
Presolved: 44682 rows, 90444 columns, 2633719 nonzeros
Variable types: 0 continuous, 90444 integer (90443 binary)

Deterministic concurrent LP optimizer: dual simplex and barrier
Showing barrier log only...

Presolve removed 80 rows and 65 columns
Presolved: 44602 rows, 90379 columns, 2633544 nonzeros

Root barrier log...

Elapsed ordering time = 5s
Elapsed ordering time = 10s
Ordering time: 11.35s

Barrier statistics:
 AA' NZ     : 4.474e+06
 Factor NZ  : 1.704e+07 (roughly 200 MBytes of memory)
 Factor Ops : 1.812e+10 (roughly 1 second per iteration)
 Threads    : 1

                  Objective                Residual
Iter       Primal          Dual         Primal    Dual     Compl     Time
   0   1.85721594e+04 -6.73949815e+05  6.76e+04 1.48e-01  7.81e+02    27s
   1   1.61022358e+04 -6.49633564e+05  3.83e+04 1.66e+00  4.43e+02    29s
   2   7.72386585e+03 -6.30484464e+05  7.81e+03 5.97e-13  9.40e+01    31s
   3   2.18703054e+03 -5.69286627e+05  6.31e+02 2.31e-12  9.98e+00    33s
   4   2.22971583e+03 -3.13594654e+05  1.87e+02 1.44e-12  3.22e+00    35s
   5   2.22422061e+03 -1.53523725e+05  7.38e+01 1.48e-12  1.32e+00    38s
   6   1.99885074e+03 -5.17241080e+04  3.23e+01 1.71e-12  4.81e-01    40s
   7   1.38890506e+03 -1.70130728e+04  1.07e+01 1.22e-12  1.65e-01    43s
   8   1.04138422e+03 -4.14428225e+03  4.54e+00 1.14e-12  5.53e-02    46s
   9   8.15457052e+02 -1.11462220e+03  3.65e-01 6.35e-13  1.22e-02    48s
  10   7.48088732e+02 -9.06915549e+01  1.71e-01 4.37e-13  4.92e-03    51s
  11   7.16100477e+02  2.83513651e+02  1.14e-01 3.05e-13  2.47e-03    53s
  12   6.97478631e+02  4.43331666e+02  8.77e-02 1.85e-13  1.43e-03    56s
  13   6.56816861e+02  5.58714833e+02  3.25e-02 1.16e-13  5.39e-04    59s
  14   6.37071970e+02  5.93724264e+02  1.47e-02 1.78e-13  2.36e-04    62s
  15   6.19716259e+02  6.05301217e+02  3.15e-03 9.68e-14  7.82e-05    65s
  16   6.15072133e+02  6.08173922e+02  1.28e-03 5.46e-14  3.74e-05    67s
  17   6.12617940e+02  6.09623275e+02  3.93e-04 8.39e-14  1.62e-05    70s
  18   6.11793020e+02  6.10644625e+02  1.63e-04 6.48e-14  6.22e-06    72s
  19   6.11454928e+02  6.10862306e+02  8.30e-05 4.40e-14  3.21e-06    75s
  20   6.11297573e+02  6.10946579e+02  4.80e-05 5.09e-14  1.90e-06    77s
  21   6.11186557e+02  6.11013358e+02  2.32e-05 7.33e-14  9.38e-07    80s
  22   6.11120433e+02  6.11048823e+02  8.89e-06 7.85e-14  3.88e-07    82s
  23   6.11090410e+02  6.11067368e+02  2.84e-06 8.44e-14  1.25e-07    84s
  24   6.11081259e+02  6.11071882e+02  1.13e-06 8.66e-14  5.07e-08    87s
  25   6.11078594e+02  6.11073485e+02  6.46e-07 7.36e-14  2.77e-08    89s
  26   6.11076495e+02  6.11074201e+02  2.69e-07 3.60e-14  1.24e-08    91s
  27   6.11075697e+02  6.11074526e+02  1.34e-07 8.25e-14  6.34e-09    93s
  28   6.11075483e+02  6.11074552e+02  9.82e-08 5.47e-14  5.04e-09    95s
  29   6.11074943e+02  6.11074752e+02  7.26e-09 5.43e-14  1.03e-09    97s
  30   6.11074901e+02  6.11074848e+02  2.36e-09 4.70e-14  2.87e-10   100s
  31   6.11074894e+02  6.11074871e+02  2.49e-09 7.87e-14  1.26e-10   102s
  32   6.11074893e+02  6.11074885e+02  1.75e-09 7.90e-14  4.42e-11   104s
  33   6.11074893e+02  6.11074885e+02  3.36e-09 9.59e-14  3.95e-11   106s
  34   6.11074890e+02  6.11074889e+02  2.47e-09 7.21e-14  2.37e-12   109s

Barrier solved model in 34 iterations and 108.62 seconds
Optimal objective 6.11074890e+02


Root crossover log...

   24571 DPushes remaining with DInf 2.9072084e+00               109s
    1913 DPushes remaining with DInf 8.8218560e-01               110s
       0 DPushes remaining with DInf 5.4465371e+03               112s

   11676 PPushes remaining with PInf 8.3069051e-05               112s
    1419 PPushes remaining with PInf 5.1977123e-05               116s
       0 PPushes remaining with PInf 0.0000000e+00               117s

  Push phase complete: Pinf 0.0000000e+00, Dinf 5.9037465e+03    117s


Root simplex log...

Iteration    Objective       Primal Inf.    Dual Inf.      Time
   36206    6.1107489e+02   0.000000e+00   5.903747e+03    117s
   37286    6.1107489e+02   0.000000e+00   1.488198e+03    121s
   38046    6.1107485e+02   0.000000e+00   1.520138e+04    126s
   38736    6.1107484e+02   0.000000e+00   8.107097e+02    130s
   39436    6.1107481e+02   0.000000e+00   1.343551e+02    136s
   40006    6.1107480e+02   0.000000e+00   7.999617e+00    141s
   40400    6.1107489e+02   0.000000e+00   0.000000e+00    143s
   40400    6.1107489e+02   0.000000e+00   0.000000e+00    143s
Concurrent spin time: 0.00s

Solved with barrier

Root relaxation: objective 6.110749e+02, 40400 iterations, 132.21 seconds
Total elapsed time = 167.32s
Total elapsed time = 173.08s
Total elapsed time = 177.17s
Total elapsed time = 181.84s

    Nodes    |    Current Node    |     Objective Bounds      |     Work
 Expl Unexpl |  Obj  Depth IntInf | Incumbent    BestBd   Gap | It/Node Time

     0     0  611.07489    0 6530          -  611.07489      -     -  184s
     0     0  612.00000    0 10141          -  612.00000      -     - 1094s
     0     0          -    0               -  612.00000      -     - 7200s

Cutting planes:
  Implied bound: 1
  Clique: 6
  MIR: 7
  StrongCG: 8

Explored 1 nodes (1532542 simplex iterations) in 7200.01 seconds
Thread count was 4 (of 4 available processors)

Solution count 0

Time limit reached
Best objective -, best bound 6.120000000000e+02, gap -

Unable to retrieve attribute 'X'

